TITLE: Configural model teacher;
DATA: 
    file = ../../../data/processed/measurement_invariance/item_data_teacher.dat;
    FORMAT = FREE;

VARIABLE:
  NAMES = item1-item10 sex family;
  CATEGORICAL = item1-item10;
  GROUPING = sex (1 = male 2 = female);
  CLUSTER = family;
  MISSING = *;

ANALYSIS:
  ESTIMATOR = WLSMV;
  TYPE = COMPLEX;
  PARAMETERIZATION = THETA;    ! needed to estimate residual
! variances for categorical indicators

MODEL:
  F BY item1-item10* (L1-L10); ! freely estimate
  item4 WITH item10;

  ! identification: factor mean fixed to zero in male
  [F@0];

  ! factor variance fixed to 1 in male
  F@1;

  ! thresholds for male: estimated freely but we label 
  !them so they can be referenced in female
  [item1$1-item10$1] (ta1-ta10);
  [item1$2-item10$2] (tb1-tb10);

  ! residual variances: fixed to 1 in male 
  item1@1 (e1);
  item2@1 (e2);
  item3@1 (e3);
  item4@1 (e4);
  item5@1 (e5);
  item6@1 (e6);
  item7@1 (e7);
  item8@1 (e8);
  item9@1 (e9);
  item10@1 (e10);

! ---------- GROUP 2: FEMALE ----------
MODEL female:
! Freely estimated factor loadings
  F BY item1-item10*;
  item4 WITH item10;

  ! factor mean estimated freely in female
  [F];     

  ! factor variance fixed to 1 in female as required
  F@1;

  ! constrain all first thresholds equal with males
  [item1$1-item10$1] (ta1-ta10);
  
! constrain the second threshold of the reference item (4)
[item4$2] (tb4);

! free all other second thresholds
[item1$2-item3$2 item5$2-item10$2];

  ! Residual variances: estimated freely in female 
  item1-item10*;

SAVEDATA:
DIFFTEST = configural_model_teacher_extended.dat;

OUTPUT:
  MODINDICES(ALL, 20)
  STDYX;

