TITLE: Metric model self;
DATA: 
    file = ../../../data/processed/measurement_invariance/item_data_self.dat;
    FORMAT = FREE;

VARIABLE:
  NAMES = item1-item9 sex family;
  USEVARIABLES = item2-item9 sex family;
  CATEGORICAL = item2-item9;
  GROUPING = sex (1 = male 2 = female);
  CLUSTER = family;
  MISSING = *;

ANALYSIS:
  ESTIMATOR = WLSMV;
  TYPE = COMPLEX;
  PARAMETERIZATION = THETA;    ! needed to estimate residual
! variances for categorical indicators
  DIFFTEST = configural_model_self_extended_item1.dat;

MODEL:
  F BY item2-item9* (L2-L9); ! constrained to male
  ITEM4 WITH ITEM9;   ! modindices indicated these items showed covariance 
  ! identification: factor mean fixed to zero in male
  [F@0];

  ! factor variance fixed to 1 in male
  F@1;

  ! thresholds for male: estimated freely but we label 
  !them so they can be referenced in female
  [item2$1-item9$1] (ta2-ta9);
  [item2$2-item9$2] (tb2-tb9);

  ! residual variances: fixed to 1 in male 
  item2-item9@1;  

! ---------- GROUP 2: FEMALE ----------
MODEL female:
! factor loadings constrained to male
  F BY item2-item9* (L2-L9);
  ITEM4 WITH ITEM9;   ! modindices indicated these items showed covariance 

  ! factor mean estimated freely in female
  [F];     

  ! factor variance fixed to 1 in female as required
  F@1;

    ! constrain all first thresholds equal with males
  [item2$1-item9$1] (ta2-ta9);
  
  ! constrain the second threshold of the reference item (8)
  [item4$2] (tb4);

  ! free all other second thresholds
  [item2$2 item3$2 item5$2-item9$2];

  ! Residual variances: estimated freely in female 
  item2-item9*;

SAVEDATA:
DIFFTEST = metric_model_self_extended_item1.dat;

OUTPUT:
  MODINDICES(ALL, 20)
  STDYX;
