TITLE: Configural model self;
DATA: 
    file = ../../../data/processed/measurement_invariance/item_data_self.dat;
    FORMAT = FREE;

VARIABLE:
  NAMES = item1-item9 sex family;
  USEVARIABLES = item2-item9 sex family;
  CATEGORICAL = item2-item9;
  GROUPING = sex (1 = male 2 = female);
  CLUSTER = family;
  MISSING = *;

ANALYSIS:
  ESTIMATOR = WLSMV;
  TYPE = COMPLEX;
  PARAMETERIZATION = THETA;    ! needed to estimate residual
! variances for categorical indicators
  DIFFTEST = metric_model_self_extended_item1.dat;

MODEL:
  F BY item2-item9* (L2-L9); ! constrained with female
  ITEM4 WITH ITEM9;   ! modindices indicated these items showed covariance 
  ! identification: factor mean fixed to zero in male
  [F@0];

  ! factor variance fixed to 1 in male
  F@1;

  ! thresholds constrained between males and females
  [item2$1] (t21);   [item2$2] (t22); 
  [item3$1] (t31);   [item3$2] (t32);
  [item4$1] (t41);   [item4$2] (t42);
  [item5$1] (t51);   [item5$2] (t52);
  [item6$1] (t61);   [item6$2] (t62);
  [item7$1] (t71);   [item7$2] (t72);
  [item8$1] (t81);   [item8$2] (t82);
  [item9$1] (t91);   [item9$2] (t92);

  ! residual variances: fixed to 1 in male 
  item2-item9@1;  

! ---------- GROUP 2: FEMALE ----------
MODEL female:
! factor loadings constrained
  F BY item2-item9* (L2-L9);
  ITEM4 WITH ITEM9;   ! modindices indicated these items showed covariance 

  ! factor mean estimated freely in female
  [F];     

  ! factor variance fixed to 1 in female as required
  F@1;

  ! Threshold constraints between males and females
  [item2$1] (t21);   [item2$2] (t22);
  [item3$1] (t31);   [item3$2] (t32);
  [item4$1] (t41);   [item4$2] (t42);
  [item5$1] (t51);   [item5$2] (t52);
  [item6$1] (t61);   [item6$2] (t62);
  [item7$1] (t71);   [item7$2] (t72);
  [item8$1] (t81);   [item8$2] (t82);
  [item9$1] (t91);   [item9$2] (t92);

  ! Residual variances: estimated freely in female 
  item2-item9*;

SAVEDATA:
DIFFTEST = strong_model_self_extended_item1.dat;

OUTPUT:
  MODINDICES(ALL, 20)
  STDYX;
